c Result of efficient AIG-to-CNF conversion using package CNF
p cnf 173 656
-2 3 83 0
-2 -3 -83 0
2 -3 83 0
2 3 -83 0
-3 -4 -48 0
-3 4 48 0
3 4 -48 0
3 -4 48 0
-4 5 20 0
-4 20 43 0
-4 5 43 0
4 -20 -43 0
4 -5 -20 0
4 -5 -43 0
-5 6 15 0
-5 6 19 0
5 -6 0
5 -15 -19 0
6 -7 -11 0
-6 7 0
-6 11 0
-7 8 9 0
-7 -8 -9 0
7 -8 9 0
7 8 -9 0
8 -158 161 0
8 -158 159 0
-8 158 0
-8 -159 -161 0
-9 158 10 0
-9 -158 -10 0
9 -158 10 0
9 158 -10 0
-10 158 161 0
-10 -161 162 0
-10 159 161 0
10 -161 -162 0
10 -158 -159 161 0
-11 12 13 0
-11 -12 -13 0
11 -12 13 0
11 12 -13 0
12 -163 166 0
12 -163 165 0
-12 163 0
-12 -165 -166 0
-13 163 14 0
-13 -163 -14 0
13 -163 14 0
13 163 -14 0
-14 165 166 0
-14 160 -165 0
-14 163 165 0
14 -160 -165 0
14 -163 165 -166 0
-15 16 17 0
-15 -16 -17 0
15 -16 17 0
15 16 -17 0
16 164 -167 0
16 -167 168 0
-16 167 0
-16 -164 -168 0
-17 167 18 0
-17 -167 -18 0
17 -167 18 0
17 167 -18 0
-18 -164 170 0
-18 164 168 0
-18 164 167 0
18 -164 -170 0
18 164 -167 -168 0
19 -7 11 0
19 7 -11 0
-19 7 11 0
-19 -7 -11 0
-20 -21 -28 0
-20 21 28 0
20 21 -28 0
20 -21 28 0
-21 22 24 0
-21 -22 -24 0
21 -22 24 0
21 22 -24 0
22 -167 168 23 0
-22 167 0
-22 -23 0
-22 -168 0
23 -164 -170 0
-23 164 0
-23 170 0
-24 25 26 0
-24 -25 -26 0
24 -25 26 0
24 25 -26 0
25 167 -168 -172 0
25 -167 -168 172 0
-25 168 0
-25 -167 -172 0
-25 167 172 0
-26 167 27 0
-26 -167 -27 0
26 -167 27 0
26 167 -27 0
-27 -164 171 0
-27 164 170 0
-27 164 167 0
27 -164 -171 0
27 164 -167 -170 0
28 -29 36 0
28 29 -36 0
-28 29 36 0
-28 -29 -36 0
-29 30 32 0
-29 -30 -32 0
29 -30 32 0
29 30 -32 0
30 -158 159 31 0
-30 158 0
-30 -31 0
-30 -159 0
31 -161 -162 0
-31 161 0
-31 162 0
-32 33 34 0
-32 -33 -34 0
32 -33 34 0
32 33 -34 0
33 156 -158 -159 0
33 -156 158 -159 0
-33 159 0
-33 156 158 0
-33 -156 -158 0
-34 158 35 0
-34 -158 -35 0
34 -158 35 0
34 158 -35 0
-35 161 162 0
-35 155 -161 0
-35 158 161 0
35 -155 -161 0
35 -158 161 -162 0
-36 37 39 0
-36 -37 -39 0
36 -37 39 0
36 37 -39 0
37 -163 166 38 0
-37 163 0
-37 -38 0
-37 -166 0
38 -160 -165 0
-38 160 0
-38 165 0
-39 40 41 0
-39 -40 -41 0
39 -40 41 0
39 40 -41 0
40 154 -163 -166 0
40 -154 163 -166 0
-40 166 0
-40 154 163 0
-40 -154 -163 0
-41 163 42 0
-41 -163 -42 0
41 -163 42 0
41 163 -42 0
-42 160 165 0
-42 153 -165 0
-42 163 165 0
42 -153 -165 0
42 -160 -163 165 0
43 15 -19 -44 0
43 -15 19 -44 0
-43 44 0
-43 15 19 0
-43 -15 -19 0
-44 45 46 0
-44 159 45 0
-44 161 45 0
44 -45 0
44 -159 -161 -46 0
45 -164 -165 -166 -168 0
-45 168 0
-45 164 0
-45 166 0
-45 165 0
-46 164 47 0
-46 168 47 0
46 -47 0
46 -164 -168 0
47 -165 -166 0
-47 165 0
-47 166 0
48 -49 51 0
48 49 -51 0
-48 49 51 0
-48 -49 -51 0
-49 50 28 0
-49 21 50 0
49 -50 0
49 -21 -28 0
50 -29 -36 0
-50 29 0
-50 36 0
-51 -52 -62 0
-51 52 62 0
51 52 -62 0
51 -52 62 0
-52 -53 -54 0
-52 53 54 0
52 53 -54 0
52 -53 54 0
-53 25 26 0
-53 22 25 0
-53 22 26 0
53 -22 -25 0
53 -25 -26 0
53 -22 -26 0
54 55 -56 0
54 -55 56 0
-54 -55 -56 0
-54 55 56 0
55 -152 25 0
-55 152 0
-55 -25 0
56 -57 59 0
56 57 -59 0
-56 57 59 0
-56 -57 -59 0
-57 167 58 0
-57 -167 -58 0
57 -167 58 0
57 167 -58 0
-58 164 171 0
-58 151 -164 0
-58 164 167 0
58 -151 -164 0
58 164 -167 -171 0
-59 152 60 0
-59 -152 -60 0
59 -152 60 0
59 152 -60 0
-60 170 61 0
-60 -167 -172 61 0
-60 167 172 61 0
60 -61 0
60 167 -170 -172 0
60 -167 -170 172 0
61 -152 167 -168 172 0
61 152 -167 -168 -172 0
-61 167 -172 0
-61 152 172 0
-61 168 0
-61 -152 -167 0
62 -63 73 0
62 63 -73 0
-62 63 73 0
-62 -63 -73 0
-63 -64 -65 0
-63 64 65 0
63 64 -65 0
63 -64 65 0
-64 33 34 0
-64 30 33 0
-64 30 34 0
64 -30 -33 0
64 -33 -34 0
64 -30 -34 0
65 66 -67 0
65 -66 67 0
-65 -66 -67 0
-65 66 67 0
66 -150 33 0
-66 150 0
-66 -33 0
67 -68 70 0
67 68 -70 0
-67 68 70 0
-67 -68 -70 0
-68 158 69 0
-68 -158 -69 0
68 -158 69 0
68 158 -69 0
-69 155 161 0
-69 149 -161 0
-69 158 161 0
69 -149 -161 0
69 -155 -158 161 0
-70 150 71 0
-70 -150 -71 0
70 -150 71 0
70 150 -71 0
-71 162 72 0
-71 156 158 72 0
-71 -156 -158 72 0
71 -72 0
71 156 -158 -162 0
71 -156 158 -162 0
72 -150 156 158 -159 0
72 150 -156 -158 -159 0
-72 -156 158 0
-72 -150 -158 0
-72 159 0
-72 150 156 0
-73 -74 -75 0
-73 74 75 0
73 74 -75 0
73 -74 75 0
-74 40 41 0
-74 37 40 0
-74 37 41 0
74 -37 -40 0
74 -40 -41 0
74 -37 -41 0
75 76 -77 0
75 -76 77 0
-75 -76 -77 0
-75 76 77 0
76 -169 40 0
-76 169 0
-76 -40 0
77 -78 80 0
77 78 -80 0
-77 78 80 0
-77 -78 -80 0
-78 163 79 0
-78 -163 -79 0
78 -163 79 0
78 163 -79 0
-79 157 -165 0
-79 163 165 0
-79 153 165 0
79 -157 -165 0
79 -153 -163 165 0
-80 169 81 0
-80 -169 -81 0
80 -169 81 0
80 169 -81 0
-81 160 82 0
-81 -154 -163 82 0
-81 154 163 82 0
81 -82 0
81 154 -160 -163 0
81 -154 -160 163 0
82 154 163 -166 -169 0
82 -154 -163 -166 169 0
-82 163 169 0
-82 154 -163 0
-82 166 0
-82 -154 -169 0
-83 -84 -128 0
-83 84 128 0
83 84 -128 0
83 -84 128 0
-84 -85 -99 0
-84 85 99 0
84 85 -99 0
84 -85 99 0
85 -86 95 0
85 86 -95 0
-85 86 95 0
-85 -86 -95 0
-86 87 91 0
-86 -87 -91 0
86 -87 91 0
86 87 -91 0
87 152 -90 0
87 -152 88 89 0
87 152 -88 0
-87 -152 -88 0
-87 -152 -89 0
-87 152 88 90 0
88 167 -170 -172 0
88 -167 -170 172 0
-88 170 0
-88 -167 -172 0
-88 167 172 0
89 167 -168 172 0
-89 -167 0
-89 168 0
-89 -172 0
90 -167 -168 -172 0
-90 167 0
-90 168 0
-90 172 0
-91 92 94 0
-91 -92 -94 0
91 -92 94 0
91 92 -94 0
92 -152 93 0
-92 152 0
-92 -93 0
93 167 -168 -172 0
93 -167 -168 172 0
-93 168 0
-93 -167 -172 0
-93 167 172 0
-94 151 167 0
-94 164 167 0
-94 164 -171 0
-94 -151 -164 -167 0
94 151 -164 -167 0
94 164 -167 171 0
94 -151 -164 167 0
-95 93 -96 0
-95 97 98 0
-95 -96 97 0
-95 93 98 0
95 -93 -97 0
95 96 -98 0
-96 -164 171 0
-96 164 170 0
96 164 -170 0
96 -164 -171 0
-97 167 171 0
-97 164 167 0
-97 164 -170 0
-97 -164 -167 -171 0
97 164 -167 170 0
97 -164 -167 171 0
97 -164 167 -171 0
98 -167 168 23 0
-98 167 0
-98 -23 0
-98 -168 0
99 100 -114 0
99 -100 114 0
-99 -100 -114 0
-99 100 114 0
100 101 -111 0
100 -101 111 0
-100 -101 -111 0
-100 101 111 0
-101 102 107 0
-101 -102 -107 0
101 -102 107 0
101 102 -107 0
-102 166 104 0
-102 -169 104 0
-102 103 104 0
102 -104 0
102 -166 169 -103 0
103 -154 -163 0
-103 154 0
-103 163 0
-104 169 106 0
-104 -169 -106 0
-104 -166 105 106 0
104 169 -106 0
104 166 -169 106 0
104 -169 -105 106 0
-105 154 163 0
105 -154 0
105 -163 0
106 154 -160 -163 0
106 -154 -160 163 0
-106 160 0
-106 -154 -163 0
-106 154 163 0
-107 108 110 0
-107 -108 -110 0
107 -108 110 0
107 108 -110 0
108 -169 109 0
-108 169 0
-108 -109 0
109 154 -163 -166 0
109 -154 163 -166 0
-109 166 0
-109 154 163 0
-109 -154 -163 0
-110 163 165 0
-110 -157 -163 -165 0
-110 -153 165 0
-110 157 163 0
110 -157 163 -165 0
110 157 -163 -165 0
110 153 -163 165 0
111 -112 -113 0
-111 112 0
-111 113 0
-112 163 165 0
-112 -153 -163 -165 0
-112 153 163 0
-112 -160 165 0
112 -153 163 -165 0
112 153 -163 -165 0
112 160 -163 165 0
-113 163 166 0
-113 154 163 0
-113 166 -38 0
-113 -154 -163 -166 0
113 154 -163 -166 0
113 -154 163 -166 0
113 -163 166 38 0
114 -115 124 0
114 115 -124 0
-114 115 124 0
-114 -115 -124 0
115 -116 120 0
115 116 -120 0
-115 116 120 0
-115 -116 -120 0
116 150 -118 0
116 -150 118 119 0
116 150 -117 0
-116 -150 -118 0
-116 150 117 118 0
-116 -150 -119 0
117 -156 -158 -159 0
-117 156 0
-117 158 0
-117 159 0
118 156 -158 -162 0
118 -156 158 -162 0
-118 162 0
-118 156 158 0
-118 -156 -158 0
119 156 158 -159 0
-119 159 0
-119 -158 0
-119 -156 0
-120 -121 -122 0
-120 121 122 0
120 121 -122 0
120 -121 122 0
-121 158 161 0
-121 -149 -158 -161 0
-121 149 158 0
-121 -155 161 0
121 -149 158 -161 0
121 149 -158 -161 0
121 155 -158 161 0
122 -150 123 0
-122 150 0
-122 -123 0
123 156 -158 -159 0
123 -156 158 -159 0
-123 159 0
-123 156 158 0
-123 -156 -158 0
-124 123 -125 0
-124 126 127 0
-124 -125 126 0
-124 123 127 0
124 -123 -126 0
124 125 -127 0
-125 155 -161 0
-125 161 162 0
125 -155 -161 0
125 161 -162 0
-126 158 161 0
-126 155 158 0
-126 161 -162 0
-126 -155 -158 -161 0
126 155 -158 -161 0
126 -155 158 -161 0
126 -158 161 162 0
127 -158 159 31 0
-127 158 0
-127 -31 0
-127 -159 0
128 -129 148 0
128 129 -148 0
-128 129 148 0
-128 -129 -148 0
-129 130 142 0
-129 130 143 0
-129 135 142 143 0
129 -130 -143 0
129 -130 -142 0
129 -130 -135 0
129 -142 -143 0
-130 131 132 0
-130 -131 -132 0
130 -131 132 0
130 131 -132 0
131 -93 -96 97 0
131 93 -97 98 0
131 93 -96 -98 0
131 -93 97 98 0
-131 -93 -97 0
-131 96 -98 0
-131 93 97 98 0
-132 133 134 0
-132 -133 -134 0
132 -133 134 0
132 133 -134 0
133 -123 -125 126 0
133 123 -126 127 0
133 123 -125 -127 0
133 -123 126 127 0
-133 -123 -126 0
-133 125 -127 0
-133 123 126 127 0
-134 112 113 0
-134 -112 -113 0
134 -112 113 0
134 112 -113 0
135 -138 -140 0
135 -136 -140 0
-135 140 0
-135 136 138 0
136 38 -137 0
136 -38 137 0
-136 -38 -137 0
-136 38 137 0
137 -163 -166 0
-137 163 0
-137 166 0
138 31 -139 0
138 -31 139 0
-138 -31 -139 0
-138 31 139 0
139 -158 -159 0
-139 158 0
-139 159 0
140 23 -141 0
140 -23 141 0
-140 -23 -141 0
-140 23 141 0
141 -167 -168 0
-141 167 0
-141 168 0
142 -136 -138 0
-142 136 0
-142 138 0
143 -144 -47 -146 0
143 -144 -145 -146 0
143 -47 -145 -146 0
-143 144 145 0
-143 47 145 0
-143 146 0
-143 144 47 0
144 -159 -161 0
-144 159 0
-144 161 0
145 -164 -168 0
-145 164 0
-145 168 0
146 -140 147 0
146 140 -147 0
-146 140 147 0
-146 -140 -147 0
-147 -136 -138 0
-147 136 138 0
147 136 -138 0
147 -136 138 0
-148 133 134 0
-148 131 133 0
-148 131 134 0
148 -131 -133 0
148 -133 -134 0
148 -131 -134 0
-173 0
2 0

